
  17    4
  10   10   10   10

   0   0   0   0   0   6 2 3 4 5 6 10 
   5  10  10  10  10   3 15 9 7 
   5  10  10  10  10   2 8 7 
   2  10  10  10  10   2 8 7 
   8  10  10  10  10   4 16 15 11 9 
   4  10  10  10  10   5 16 15 14 12 11 
   2  10  10  10  10   4 16 14 12 11 
   5  10  10  10  10   4 15 14 12 11 
   9  10  10  10  10   2 14 12 
  10  10  10  10  10   2 13 12 
   7  10  10  10  10   1 13 
   1  10  10  10  10   1 17
   1  10  10  10  10   1 17
   8  10  10  10  10   1 17
   1  10  10  10  10   1 17
   8  10  10  10  10   1 17
   0   0   0   0   0   0 
